(set-info :smt-lib-version 2.6)
(set-logic QF_S)
(set-info :source |
Generated by: Hongjian Jiang, Oliver Markgraf, Daniel Stan, Anthony W. Lin, Philipp Ruemmer
Generated on: 2025-04-11
Application: Using String Solvers to solve RMC problems encoded as CHC over Strings
Target solver: cvc5, OSTRICH, Z3, Z3alpha, Z3-noodler
Time limit: 60.0
Benchmarks are extracted by running HornStr https://arg-git.informatik.uni-kl.de/pub/string-chc-lib on all benchmarks
provided in the repository and gathering the string queries sent to the string solvers.
|)
(set-info :license "https://creativecommons.org/licenses/by/4.0/")
(set-info :category "industrial")
(declare-fun Y () String)
(assert (let ((a!1 (re.union (re.union (re.union (str.to_re "a") (str.to_re "H"))
                               (str.to_re "b"))
                     (str.to_re "c"))))
(let ((a!2 (re.* (re.union (re.union a!1 (str.to_re "d")) (str.to_re "E")))))
  (str.in_re Y a!2))))
(declare-fun X () String)
(declare-fun reg1 () String)
(declare-fun reg0 () String)
(assert (let ((a!1 (re.union (re.union (re.union (str.to_re "H") (str.to_re "c"))
                               (str.to_re "d"))
                     (str.to_re "a"))))
(let ((a!2 (str.in_re reg0 (re.* (re.union a!1 (str.to_re "b")))))
      (a!3 (str.in_re reg1 (re.* (re.union a!1 (str.to_re "b"))))))
  (and true (= X reg1) (= Y reg1) a!2 a!3))))
(push 1)
(assert (= X "Hbc"))
(set-info :status unknown)
(check-sat)
(assert (distinct Y "Hbc"))
(set-info :status unknown)
(check-sat)
(pop 1)
(push 1)
(assert (= X "HbH"))
(set-info :status unknown)
(check-sat)
(assert (distinct Y "HbH"))
(set-info :status unknown)
(check-sat)
(pop 1)
(push 1)
(assert (= X "HHc"))
(set-info :status unknown)
(check-sat)
(assert (distinct Y "HHc"))
(set-info :status unknown)
(check-sat)
(pop 1)
(push 1)
(assert (= X "HHH"))
(set-info :status unknown)
(check-sat)
(assert (distinct Y "HHH"))
(set-info :status unknown)
(check-sat)
(pop 1)
(push 1)
(assert (= X "HbHH"))
(set-info :status unknown)
(check-sat)
(assert (distinct Y "HbHH"))
(set-info :status unknown)
(check-sat)
(pop 1)
(push 1)
(assert (= X "HbcH"))
(set-info :status unknown)
(check-sat)
(assert (distinct Y "HbcH"))
(set-info :status unknown)
(check-sat)
(pop 1)
(push 1)
(assert (= X "HHHH"))
(set-info :status unknown)
(check-sat)
(assert (distinct Y "HHHH"))
(set-info :status unknown)
(check-sat)
(pop 1)
(push 1)
(assert (= X "HHcH"))
(set-info :status unknown)
(check-sat)
(assert (distinct Y "HHcH"))
(set-info :status unknown)
(check-sat)
(pop 1)
(set-info :status unknown)
(check-sat)
(exit)
